c numero: 21
c nombre: n-30-d-0.3
c densidad: 0.3
p edges 30 119
e 1 4
e 1 5
e 1 12
e 1 15
e 1 18
e 1 21
e 1 23
e 1 27
e 1 28
e 2 4
e 2 6
e 2 12
e 2 14
e 2 17
e 2 25
e 2 30
e 3 8
e 3 13
e 3 17
e 3 25
e 3 27
e 3 29
e 4 14
e 4 19
e 4 20
e 4 22
e 4 28
e 5 9
e 5 11
e 5 21
e 5 23
e 5 28
e 5 29
e 6 8
e 6 17
e 6 20
e 6 24
e 6 26
e 6 28
e 7 10
e 7 11
e 7 21
e 7 22
e 7 24
e 7 27
e 8 10
e 8 12
e 8 21
e 8 22
e 8 26
e 8 27
e 9 25
e 9 26
e 9 27
e 10 11
e 10 12
e 10 15
e 10 17
e 10 19
e 10 21
e 10 24
e 10 28
e 10 30
e 11 25
e 11 26
e 11 27
e 11 29
e 12 18
e 12 20
e 12 22
e 12 25
e 12 27
e 13 17
e 13 20
e 13 23
e 13 25
e 13 27
e 14 21
e 14 30
e 15 16
e 15 27
e 15 30
e 16 18
e 16 20
e 16 23
e 16 24
e 17 18
e 17 19
e 17 21
e 17 22
e 17 24
e 17 26
e 17 29
e 18 20
e 18 21
e 18 24
e 18 30
e 19 22
e 19 24
e 19 26
e 19 29
e 20 22
e 20 24
e 20 25
e 20 27
e 20 29
e 21 30
e 22 23
e 22 26
e 22 29
e 23 24
e 23 29
e 24 26
e 24 30
e 25 26
e 25 28
e 25 29
e 26 30
e 28 30
